<number of tasks>
29

<cycle time>
54

<task times>
1 7
2 19
3 15
4 5
5 12
6 10
7 8
8 16
9 2
10 6
11 21
12 10
13 9
14 4
15 14
16 7
17 14
18 17
19 10
20 16
21 1
22 9
23 25
24 14
25 14
26 2
27 10
28 7
29 20

<precedence relations>
1,3
1,25
2,6
2,26
3,4
4,5
5,8
5,13
6,8
7,9
7,12
7,25
8,11
8,16
9,10
10,14
10,15
11,17
12,15
13,17
14,16
15,19
16,18
17,20
18,22
19,21
20,23
21,22
22,23
23,24
23,28
24,29
25,29
26,27
27,29
28,29

<setup times forward>
1,6:1
1,10:3
1,12:3
1,14:1
1,15:3
1,19:1
1,21:2
1,25:3
2,4:3
2,5:1
2,6:1
2,10:3
2,12:3
2,13:1
2,14:1
2,15:3
2,19:1
2,21:2
2,25:3
3,4:3
3,6:1
3,10:3
3,12:3
3,14:1
3,15:3
3,19:1
3,21:2
3,25:3
4,2:3
4,5:4
4,6:4
4,7:3
4,9:3
4,14:2
4,19:2
4,21:5
4,26:3
4,27:3
5,2:1
5,7:1
5,8:2
5,9:1
5,10:4
5,12:4
5,13:2
5,14:2
5,15:4
5,19:2
5,21:1
5,25:4
5,26:1
5,27:1
6,1:1
6,3:1
6,4:4
6,7:1
6,8:2
6,9:1
6,10:4
6,12:4
6,13:2
6,14:2
6,15:4
6,19:2
6,21:1
6,25:4
6,26:1
6,27:1
7,4:3
7,5:1
7,6:1
7,8:1
7,11:1
7,12:3
7,13:1
7,17:1
7,20:2
7,25:3
8,7:1
8,9:1
8,10:2
8,12:2
8,15:2
8,21:3
8,25:2
8,26:1
8,27:1
9,4:3
9,5:1
9,6:1
9,8:1
9,10:3
9,11:1
9,12:3
9,13:1
9,17:1
9,20:2
9,25:3
10,1:3
10,2:3
10,3:3
10,5:4
10,6:4
10,8:2
10,11:2
10,13:2
10,14:2
10,17:2
10,20:5
10,26:3
10,27:3
11,7:1
11,9:1
11,10:2
11,12:2
11,15:2
11,21:3
11,22:3
11,25:2
11,26:1
11,27:1
12,1:3
12,2:3
12,3:3
12,5:4
12,6:4
12,8:2
12,9:3
12,11:2
12,13:2
12,14:2
12,16:2
12,17:2
12,18:2
12,20:5
12,26:3
12,27:3
13,2:1
13,6:2
13,7:1
13,9:1
13,10:2
13,12:2
13,15:2
13,21:3
13,22:3
13,25:2
13,26:1
13,27:1
14,1:1
14,2:1
14,3:1
14,4:2
14,5:2
14,6:2
14,12:2
14,15:2
14,20:3
14,21:3
14,25:2
14,26:1
14,27:1
15,1:3
15,2:3
15,3:3
15,5:4
15,6:4
15,8:2
15,11:2
15,13:2
15,14:2
15,16:2
15,17:2
15,18:2
15,19:2
15,20:5
15,26:3
15,27:3
16,12:2
16,15:2
16,20:3
16,21:3
16,25:2
16,26:1
16,27:1
17,7:1
17,9:1
17,10:2
17,12:2
17,15:2
17,20:3
17,21:3
17,22:3
17,25:2
17,26:1
17,27:1
18,12:2
18,15:2
18,20:3
18,21:3
18,22:3
18,25:2
18,26:1
18,27:1
19,1:1
19,2:1
19,3:1
19,4:2
19,5:2
19,6:2
19,20:3
19,21:3
19,25:2
19,26:1
19,27:1
20,7:2
20,9:2
20,10:5
20,12:5
20,14:3
20,15:5
20,16:3
20,18:3
20,19:3
20,25:5
20,26:2
20,27:2
21,1:2
21,2:2
21,3:2
21,4:5
21,5:1
21,6:1
21,8:3
21,11:3
21,13:3
21,14:3
21,16:3
21,17:3
21,18:3
21,25:5
21,26:2
21,27:2
22,11:3
22,13:3
22,17:3
22,25:5
22,26:2
22,27:2
23,24:2
23,25:5
23,26:2
23,27:2
23,28:2
24,25:3
25,2:3
25,3:3
25,5:4
25,6:4
25,8:2
25,9:3
25,11:2
25,13:2
25,14:2
25,16:2
25,17:2
25,18:2
25,19:2
25,20:5
25,21:5
25,22:5
25,23:5
25,24:3
25,26:3
25,27:3
25,28:3
25,29:3
26,4:3
26,5:1
26,6:1
26,8:1
26,10:3
26,11:1
26,12:3
26,13:1
26,14:1
26,15:3
26,16:1
26,17:1
26,18:1
26,19:1
26,20:2
26,21:2
26,22:2
26,23:2
26,25:3
27,4:3
27,5:1
27,6:1
27,8:1
27,10:3
27,11:1
27,12:3
27,13:1
27,14:1
27,15:3
27,16:1
27,17:1
27,18:1
27,19:1
27,20:2
27,21:2
27,22:2
27,23:2
27,25:3
28,25:3

<setup times backward>
1,1:1
1,2:1
1,6:2
1,7:1
1,9:1
1,21:3
1,26:1
1,27:1
2,1:1
2,2:1
2,3:1
2,5:2
2,7:1
2,9:1
2,21:3
3,1:1
3,2:1
3,3:1
3,6:2
3,7:1
3,9:1
3,21:3
3,26:1
3,27:1
4,1:4
4,2:4
4,3:4
4,4:1
4,6:5
4,7:4
4,9:4
4,10:1
4,12:1
4,14:3
4,15:1
4,19:3
4,21:6
4,25:1
4,26:4
4,27:4
5,5:1
5,6:1
5,21:2
6,5:1
6,6:1
6,21:2
7,1:1
7,2:1
7,3:1
7,5:2
7,6:2
7,7:1
7,20:3
7,26:1
7,27:1
8,1:2
8,2:2
8,3:2
8,5:3
8,6:3
8,7:2
8,8:1
8,9:2
8,13:1
8,14:1
8,19:1
8,21:4
8,26:2
8,27:2
9,1:1
9,2:1
9,3:1
9,5:2
9,6:2
9,7:1
9,9:1
9,20:3
9,26:1
9,27:1
10,1:4
10,2:4
10,3:4
10,4:1
10,5:5
10,6:5
10,7:4
10,8:3
10,9:4
10,10:1
10,11:3
10,12:1
10,13:3
10,17:3
10,20:6
10,25:1
10,26:4
10,27:4
11,1:2
11,2:2
11,3:2
11,5:3
11,6:3
11,7:2
11,8:1
11,9:2
11,11:1
11,13:1
11,14:1
11,16:1
11,18:1
11,19:1
11,21:4
11,22:4
11,26:2
11,27:2
12,1:4
12,2:4
12,3:4
12,4:1
12,5:5
12,6:5
12,7:4
12,8:3
12,9:4
12,10:1
12,11:3
12,12:1
12,13:3
12,14:3
12,16:3
12,17:3
12,18:3
12,20:6
12,25:1
12,26:4
12,27:4
13,1:2
13,2:2
13,3:2
13,5:3
13,6:3
13,7:2
13,8:1
13,9:2
13,11:1
13,13:1
13,14:1
13,16:1
13,18:1
13,19:1
13,21:4
13,22:4
13,26:2
13,27:2
14,1:2
14,2:2
14,3:2
14,5:3
14,6:3
14,7:2
14,8:1
14,9:2
14,11:1
14,13:1
14,14:1
14,17:1
14,19:1
14,20:4
14,21:4
14,26:2
14,27:2
15,1:4
15,2:4
15,3:4
15,4:1
15,5:5
15,6:5
15,7:4
15,8:3
15,9:4
15,10:1
15,11:3
15,12:1
15,13:3
15,14:3
15,15:1
15,16:3
15,17:3
15,18:3
15,20:6
15,25:1
15,26:4
15,27:4
16,1:2
16,2:2
16,3:2
16,5:3
16,6:3
16,7:2
16,8:1
16,9:2
16,11:1
16,13:1
16,14:1
16,16:1
16,17:1
16,19:1
16,20:4
16,21:4
16,26:2
16,27:2
17,1:2
17,2:2
17,3:2
17,5:3
17,6:3
17,7:2
17,8:1
17,9:2
17,11:1
17,13:1
17,14:1
17,16:1
17,17:1
17,18:1
17,19:1
17,21:4
17,22:4
17,26:2
17,27:2
18,1:2
18,2:2
18,3:2
18,5:3
18,6:3
18,7:2
18,8:1
18,9:2
18,11:1
18,13:1
18,14:1
18,16:1
18,17:1
18,18:1
18,19:1
18,20:4
18,21:4
18,26:2
18,27:2
19,1:2
19,2:2
19,3:2
19,5:3
19,6:3
19,7:2
19,8:1
19,9:2
19,11:1
19,13:1
19,14:1
19,16:1
19,17:1
19,18:1
19,19:1
19,20:4
19,26:2
19,27:2
20,20:1
20,21:1
20,22:1
21,20:1
21,21:1
22,20:1
22,21:1
22,22:1
23,20:1
23,21:1
23,22:1
23,23:1
24,1:1
24,2:1
24,3:1
24,5:2
24,6:2
24,7:1
24,9:1
24,20:3
24,21:3
24,22:3
24,23:3
24,24:1
24,26:1
24,27:1
24,28:1
25,1:4
25,2:4
25,3:4
25,4:1
25,5:5
25,6:5
25,7:4
25,8:3
25,9:4
25,10:1
25,11:3
25,12:1
25,13:3
25,14:3
25,15:1
25,16:3
25,17:3
25,18:3
25,19:3
25,20:6
25,21:6
25,22:6
25,23:6
25,24:4
25,25:1
25,26:4
25,27:4
25,28:4
26,1:1
26,2:1
26,3:1
26,5:2
26,6:2
26,7:1
26,9:1
26,20:3
26,21:3
26,22:3
26,23:3
26,24:1
26,26:1
26,28:1
27,1:1
27,2:1
27,3:1
27,5:2
27,6:2
27,7:1
27,9:1
27,20:3
27,21:3
27,22:3
27,23:3
27,24:1
27,26:1
27,27:1
27,28:1
28,1:1
28,2:1
28,3:1
28,5:2
28,6:2
28,7:1
28,9:1
28,20:3
28,21:3
28,22:3
28,23:3
28,24:1
28,26:1
28,27:1
28,28:1
29,1:1
29,2:1
29,3:1
29,5:2
29,6:2
29,7:1
29,9:1
29,20:3
29,21:3
29,22:3
29,23:3
29,24:1
29,26:1
29,27:1
29,28:1
29,29:1

<end>

<optimal SALBP-1 value>
7


<rand seed>
467321153

<Lower Bounds>
Lm1=6
Lms1=6
Lm2=0
Lm3=2
Lm4=6
Best=6

<Optimal Stations (Iterations: 10)>
8
